Route #1: 41 47 37 29 8 10 44
Route #2: 27 5 51 33 35 7 43
Route #3: 2 48 16 9 46 13 26
Route #4: 38 32 34 19 15 49 17 22 50 12 45 4
Route #5: 23 39 14 21 11 28 24 31 3
Route #6: 42 20 30 18 1 6
Route #7: 25 36 40
Cost 771